12 24 6 10
2 1 14 14 15 12 5 12 17 9 17 12 5 10 20 1 9 19 14 1 8 18 17 7 
1.06 13.76 13.91 8.62 10.16 3.4 2.11 14.53 7.3 6.13 8.86 1.07 8.74 1.73 10.62 7 15.55 4.44 10.96 8.88 8.46 11.9 2.55 4.29 
2.62 0.99 2.36 9.62 12.37 13.75 14.98 8.41 11.09 12.14 2.03 9.64 15.72 4.64 3.32 1.32 2.81 0.33 13.42 4.01 2.42 0.71 15.67 2.64 
5.44 3.88 4.28 0.91 5.34 6.89 8.35 7.54 6.09 7.59 7.59 11.18 9.99 11.6 12.23 4.72 11.12 11.98 1.86 13.45 13.03 7.51 0.29 2.03 
0.43 1.73 5.98 10.2 5.8 12.58 8.57 14.46 12.83 10.45 8.91 15.72 13.32 4.05 13.13 7.17 9.13 7.94 11.08 10.01 0.91 11.18 12.99 11.39 
12.73 4.32 6.56 3.45 15.26 6.49 9.5 0.76 9.61 7.97 12.9 5.98 11.82 6.95 0.52 13.06 7.83 1.86 12.23 3.91 12.85 1.17 14.78 11.71 
11.44 4.52 1.56 8.67 14.89 14.29 8.47 15.11 11.72 7.49 8.56 9.94 13.11 4.19 13.66 14.85 10.38 2 6.01 5.73 1.41 14.67 4.31 0.32 
8 8 8 8 8 8 8 8 8 8 8 8 8 8 8 8 8 8 8 8 8 8 8 8 
2.38 1.71 3.21 3.57 1.14 10.95 9.29 1.35 9.63 9.14 6.89 9.06 1.69 15.95 14 11.26 5.82 0.48 4.39 13.93 6.29 8.03 1.59 5.65 
14.87 1.73 14.44 15.01 3.45 3.29 15.97 3.15 0.08 5.59 4.8 6.32 9.42 1.88 1.13 5.98 11.36 8.82 12.36 12.88 13.29 13.13 1.6 14.48 
2.65 7.52 12.16 13.72 12.87 13.47 9.87 8.59 8.59 1.58 13.91 14.59 10.33 10.47 11.84 8.4 2.45 1.31 6.74 10.41 5.2 15.91 3.34 15.97 
4.53 0.5 6.45 11.2 0.98 12.79 7.49 6.9 0.68 7.01 8.73 8.22 0.25 7.2 15.1 11.06 8.22 14.95 2.32 10.09 3.58 10.61 12.97 5.37 
11.31 0.05 15.31 13.07 6.6 9.1 10.43 10.08 13.82 0.52 13.77 15.58 5.52 8.54 11.35 9.69 3.86 7.97 14.19 12.88 3.87 0.26 9.4 3.23 
1 1 1 1 1 1 1 1 1 1 1 1 1 1 1 1 1 1 1 1 1 1 1 1 
1 1 1 1 1 1 1 1 1 1 1 1 1 1 1 1 1 1 1 1 1 1 1 1 
1 1 1 1 1 1 1 1 1 1 1 1 1 1 1 1 1 1 1 1 1 1 1 1 
1 1 1 1 1 1 1 1 1 1 1 1 1 1 1 1 1 1 1 1 1 1 1 1 
1 1 1 1 1 1 1 1 1 1 1 1 1 1 1 1 1 1 1 1 1 1 1 1 
1 1 1 1 1 1 1 1 1 1 1 1 1 1 1 1 1 1 1 1 1 1 1 1 
1 1 1 1 1 1 1 1 1 1 1 1 1 1 1 1 1 1 1 1 1 1 1 1 
1 1 1 1 1 1 1 1 1 1 1 1 1 1 1 1 1 1 1 1 1 1 1 1 
1 1 1 1 1 1 1 1 1 1 1 1 1 1 1 1 1 1 1 1 1 1 1 1 
1 1 1 1 1 1 1 1 1 1 1 1 1 1 1 1 1 1 1 1 1 1 1 1 
1 1 1 1 1 1 1 1 1 1 1 1 1 1 1 1 1 1 1 1 1 1 1 1 
1 1 1 1 1 1 1 1 1 1 1 1 1 1 1 1 1 1 1 1 1 1 1 1 
0.01 0.01 0.01 0.01 0.01 0.01 0.01 0.01 0.01 0.01 0.01 0.01 0.01 0.01 0.01 0.01 0.01 0.01 0.01 0.01 0.01 0.01 0.01 0.01 
0.02 0.02 0.02 0.02 0.02 0.02 0.02 0.02 0.02 0.02 0.02 0.02 0.02 0.02 0.02 0.02 0.02 0.02 0.02 0.02 0.02 0.02 0.02 0.02 
0.03 0.03 0.03 0.03 0.03 0.03 0.03 0.03 0.03 0.03 0.03 0.03 0.03 0.03 0.03 0.03 0.03 0.03 0.03 0.03 0.03 0.03 0.03 0.03 
0.04 0.04 0.04 0.04 0.04 0.04 0.04 0.04 0.04 0.04 0.04 0.04 0.04 0.04 0.04 0.04 0.04 0.04 0.04 0.04 0.04 0.04 0.04 0.04 
0.05 0.05 0.05 0.05 0.05 0.05 0.05 0.05 0.05 0.05 0.05 0.05 0.05 0.05 0.05 0.05 0.05 0.05 0.05 0.05 0.05 0.05 0.05 0.05 
0.06 0.06 0.06 0.06 0.06 0.06 0.06 0.06 0.06 0.06 0.06 0.06 0.06 0.06 0.06 0.06 0.06 0.06 0.06 0.06 0.06 0.06 0.06 0.06 
0.07 0.07 0.07 0.07 0.07 0.07 0.07 0.07 0.07 0.07 0.07 0.07 0.07 0.07 0.07 0.07 0.07 0.07 0.07 0.07 0.07 0.07 0.07 0.07 
0.2 0.2 0.2 0.2 0.2 0.2 0.2 0.2 0.2 0.2 0.2 0.2 0.2 0.2 0.2 0.2 0.2 0.2 0.2 0.2 0.2 0.2 0.2 0.2 
0.4 0.4 0.4 0.4 0.4 0.4 0.4 0.4 0.4 0.4 0.4 0.4 0.4 0.4 0.4 0.4 0.4 0.4 0.4 0.4 0.4 0.4 0.4 0.4 
0.6 0.6 0.6 0.6 0.6 0.6 0.6 0.6 0.6 0.6 0.6 0.6 0.6 0.6 0.6 0.6 0.6 0.6 0.6 0.6 0.6 0.6 0.6 0.6 
0.8 0.8 0.8 0.8 0.8 0.8 0.8 0.8 0.8 0.8 0.8 0.8 0.8 0.8 0.8 0.8 0.8 0.8 0.8 0.8 0.8 0.8 0.8 0.8 
1 1 1 1 1 1 1 1 1 1 1 1 1 1 1 1 1 1 1 1 1 1 1 1 
